(set-info :smt-lib-version 2.6)
(set-logic UF)
(set-info :source |Benchmarks from the paper: "Extending Sledgehammer with SMT Solvers" by Jasmin Blanchette, Sascha Bohme, and Lawrence C. Paulson, CADE 2011.  Translated to SMT2 by Andrew Reynolds and Morgan Deters.|)
(set-info :category "industrial")
(set-info :status unsat)
(declare-sort S1 0)
(declare-sort S2 0)
(declare-sort S3 0)
(declare-sort S4 0)
(declare-sort S5 0)
(declare-sort S6 0)
(declare-sort S7 0)
(declare-sort S8 0)
(declare-sort S9 0)
(declare-sort S10 0)
(declare-sort S11 0)
(declare-sort S12 0)
(declare-sort S13 0)
(declare-sort S14 0)
(declare-sort S15 0)
(declare-sort S16 0)
(declare-fun f1 () S1)
(declare-fun f2 () S1)
(declare-fun f3 (S2 S3) S3)
(declare-fun f4 (S4 S3) S2)
(declare-fun f5 () S4)
(declare-fun f6 () S4)
(declare-fun f7 () S2)
(declare-fun f8 () S2)
(declare-fun f9 () S2)
(declare-fun f10 () S3)
(declare-fun f11 (S5 S6) S3)
(declare-fun f12 (S7 S3) S5)
(declare-fun f13 () S7)
(declare-fun f14 () S3)
(declare-fun f15 (S8 S3) S6)
(declare-fun f16 () S8)
(declare-fun f17 () S3)
(declare-fun f18 () S2)
(declare-fun f19 (S9 S6) S6)
(declare-fun f20 (S10 S6) S9)
(declare-fun f21 () S10)
(declare-fun f22 () S10)
(declare-fun f23 () S10)
(declare-fun f24 (S12 S6) S11)
(declare-fun f25 (S13 S11) S12)
(declare-fun f26 () S13)
(declare-fun f27 (S14 S11) S11)
(declare-fun f28 (S15 S11) S14)
(declare-fun f29 () S15)
(declare-fun f30 () S15)
(declare-fun f31 (S16 S3) S11)
(declare-fun f32 () S16)
(declare-fun f33 () S14)
(declare-fun f34 (S3 S3) S1)
(declare-fun f35 () S3)
(declare-fun f36 () S4)
(declare-fun f37 () S15)
(declare-fun f38 (S11 S11) S1)
(declare-fun f39 () S11)
(declare-fun f40 () S6)
(declare-fun f41 (S6 S6) S1)
(assert (not (= f1 f2)))
(assert (let ((?v_0 (f3 f8 (f3 f9 f10)))) (let ((?v_1 (f4 f6 (f3 f7 (f3 f8 ?v_0)))) (?v_2 (f15 f16 ?v_0)) (?v_3 (f4 f6 (f3 f7 ?v_0)))) (not (= (f3 (f4 f5 (f3 ?v_1 (f11 (f12 f13 f14) ?v_2))) (f3 ?v_1 (f11 (f12 f13 f17) ?v_2))) (f3 (f4 f5 (f11 (f12 f13 (f3 ?v_3 (f3 f18 f14))) ?v_2)) (f11 (f12 f13 (f3 ?v_3 (f3 f18 f17))) ?v_2)))))))
(assert (forall ((?v0 S3) (?v1 S3)) (let ((?v_1 (f3 f8 (f3 f9 f10)))) (let ((?v_0 (f15 f16 ?v_1))) (= (f11 (f12 f13 (f3 (f4 f5 ?v0) ?v1)) ?v_0) (f3 (f4 f5 (f3 (f4 f5 (f11 (f12 f13 ?v0) ?v_0)) (f3 (f4 f6 (f3 (f4 f6 (f3 f7 ?v_1)) ?v0)) ?v1))) (f11 (f12 f13 ?v1) ?v_0)))))))
(assert (forall ((?v0 S3) (?v1 S3)) (let ((?v_3 (f3 f9 f10))) (let ((?v_5 (f15 f16 (f3 f8 ?v_3))) (?v_1 (f3 f9 ?v_3))) (let ((?v_0 (f15 f16 ?v_1)) (?v_2 (f12 f13 ?v0)) (?v_4 (f4 f6 (f3 f7 ?v_1))) (?v_6 (f12 f13 ?v1))) (= (f11 (f12 f13 (f3 (f4 f5 ?v0) ?v1)) ?v_0) (f3 (f4 f5 (f3 (f4 f5 (f3 (f4 f5 (f11 ?v_2 ?v_0)) (f3 (f4 f6 (f3 ?v_4 (f11 ?v_2 ?v_5))) ?v1))) (f3 (f4 f6 (f3 ?v_4 ?v0)) (f11 ?v_6 ?v_5)))) (f11 ?v_6 ?v_0))))))))
(assert (forall ((?v0 S3) (?v1 S3)) (let ((?v_1 (f3 f8 (f3 f9 f10)))) (let ((?v_0 (f15 f16 ?v_1))) (= (f11 (f12 f13 (f3 (f4 f5 ?v0) ?v1)) ?v_0) (f3 (f4 f5 (f3 (f4 f5 (f11 (f12 f13 ?v0) ?v_0)) (f11 (f12 f13 ?v1) ?v_0))) (f3 (f4 f6 (f3 (f4 f6 (f3 f7 ?v_1)) ?v0)) ?v1)))))))
(assert (forall ((?v0 S6) (?v1 S6)) (let ((?v_0 (f15 f16 (f3 f8 (f3 f9 f10))))) (= (f19 (f20 f21 (f19 (f20 f22 ?v0) ?v1)) ?v_0) (f19 (f20 f22 (f19 (f20 f22 (f19 (f20 f21 ?v0) ?v_0)) (f19 (f20 f21 ?v1) ?v_0))) (f19 (f20 f23 (f19 (f20 f23 ?v_0) ?v0)) ?v1))))))
(assert (forall ((?v0 S11) (?v1 S11)) (let ((?v_1 (f3 f8 (f3 f9 f10)))) (let ((?v_0 (f15 f16 ?v_1))) (= (f24 (f25 f26 (f27 (f28 f29 ?v0) ?v1)) ?v_0) (f27 (f28 f29 (f27 (f28 f29 (f24 (f25 f26 ?v0) ?v_0)) (f24 (f25 f26 ?v1) ?v_0))) (f27 (f28 f30 (f27 (f28 f30 (f31 f32 ?v_1)) ?v0)) ?v1)))))))
(assert (forall ((?v0 S3)) (let ((?v_0 (f15 f16 ?v0))) (= (f19 (f20 f21 ?v_0) (f15 f16 (f3 f8 (f3 f9 f10)))) (f19 (f20 f23 ?v_0) ?v_0)))))
(assert (forall ((?v0 S3)) (let ((?v_0 (f3 f7 ?v0))) (= (f11 (f12 f13 ?v_0) (f15 f16 (f3 f8 (f3 f9 f10)))) (f3 (f4 f6 ?v_0) ?v_0)))))
(assert (forall ((?v0 S3)) (let ((?v_0 (f31 f32 ?v0))) (= (f24 (f25 f26 ?v_0) (f15 f16 (f3 f8 (f3 f9 f10)))) (f27 (f28 f30 ?v_0) ?v_0)))))
(assert (forall ((?v0 S3)) (let ((?v_0 (f15 f16 (f3 f8 (f3 f9 f10))))) (= (f3 f18 (f11 (f12 f13 ?v0) ?v_0)) (f11 (f12 f13 (f3 f18 ?v0)) ?v_0)))))
(assert (forall ((?v0 S3) (?v1 S3)) (let ((?v_0 (f15 f16 (f3 f8 (f3 f9 f10))))) (= (= (f11 (f12 f13 ?v0) ?v_0) (f11 (f12 f13 ?v1) ?v_0)) (= (f3 f18 ?v0) (f3 f18 ?v1))))))
(assert (forall ((?v0 S3)) (let ((?v_1 (f3 f9 f10)) (?v_0 (f12 f13 ?v0))) (= (f3 (f4 f6 ?v0) (f11 ?v_0 (f15 f16 (f3 f8 ?v_1)))) (f11 ?v_0 (f15 f16 (f3 f9 ?v_1)))))))
(assert (forall ((?v0 S11)) (let ((?v_0 (f24 (f25 f26 ?v0) (f15 f16 (f3 f8 (f3 f9 f10)))))) (= (f27 f33 ?v_0) ?v_0))))
(assert (forall ((?v0 S3)) (let ((?v_0 (f11 (f12 f13 ?v0) (f15 f16 (f3 f8 (f3 f9 f10)))))) (= (f3 f18 ?v_0) ?v_0))))
(assert (forall ((?v0 S11)) (let ((?v_0 (f15 f16 (f3 f8 (f3 f9 f10))))) (= (f24 (f25 f26 (f27 f33 ?v0)) ?v_0) (f24 (f25 f26 ?v0) ?v_0)))))
(assert (forall ((?v0 S3)) (let ((?v_0 (f15 f16 (f3 f8 (f3 f9 f10))))) (= (f11 (f12 f13 (f3 f18 ?v0)) ?v_0) (f11 (f12 f13 ?v0) ?v_0)))))
(assert (forall ((?v0 S6)) (= (f19 (f20 f23 ?v0) ?v0) (f19 (f20 f21 ?v0) (f15 f16 (f3 f8 (f3 f9 f10)))))))
(assert (forall ((?v0 S3)) (= (f3 (f4 f6 ?v0) ?v0) (f11 (f12 f13 ?v0) (f15 f16 (f3 f8 (f3 f9 f10)))))))
(assert (forall ((?v0 S11)) (= (f27 (f28 f30 ?v0) ?v0) (f24 (f25 f26 ?v0) (f15 f16 (f3 f8 (f3 f9 f10)))))))
(assert (forall ((?v0 S6)) (= (f19 (f20 f21 ?v0) (f15 f16 (f3 f8 (f3 f9 f10)))) (f19 (f20 f23 ?v0) ?v0))))
(assert (forall ((?v0 S3)) (= (f11 (f12 f13 ?v0) (f15 f16 (f3 f8 (f3 f9 f10)))) (f3 (f4 f6 ?v0) ?v0))))
(assert (forall ((?v0 S11)) (= (f24 (f25 f26 ?v0) (f15 f16 (f3 f8 (f3 f9 f10)))) (f27 (f28 f30 ?v0) ?v0))))
(assert (forall ((?v0 S6) (?v1 S6)) (let ((?v_0 (f20 f21 ?v0))) (let ((?v_1 (f19 ?v_0 ?v1))) (= (f19 ?v_0 (f19 (f20 f23 (f15 f16 (f3 f8 (f3 f9 f10)))) ?v1)) (f19 (f20 f23 ?v_1) ?v_1))))))
(assert (forall ((?v0 S3) (?v1 S6)) (let ((?v_0 (f12 f13 ?v0))) (let ((?v_1 (f11 ?v_0 ?v1))) (= (f11 ?v_0 (f19 (f20 f23 (f15 f16 (f3 f8 (f3 f9 f10)))) ?v1)) (f3 (f4 f6 ?v_1) ?v_1))))))
(assert (forall ((?v0 S11) (?v1 S6)) (let ((?v_0 (f25 f26 ?v0))) (let ((?v_1 (f24 ?v_0 ?v1))) (= (f24 ?v_0 (f19 (f20 f23 (f15 f16 (f3 f8 (f3 f9 f10)))) ?v1)) (f27 (f28 f30 ?v_1) ?v_1))))))
(assert (forall ((?v0 S6) (?v1 S6) (?v2 S6)) (let ((?v_0 (f20 f21 ?v0))) (= (f19 (f20 f21 (f19 ?v_0 ?v1)) ?v2) (f19 ?v_0 (f19 (f20 f23 ?v1) ?v2))))))
(assert (forall ((?v0 S3) (?v1 S6) (?v2 S6)) (let ((?v_0 (f12 f13 ?v0))) (= (f11 (f12 f13 (f11 ?v_0 ?v1)) ?v2) (f11 ?v_0 (f19 (f20 f23 ?v1) ?v2))))))
(assert (forall ((?v0 S11) (?v1 S6) (?v2 S6)) (let ((?v_0 (f25 f26 ?v0))) (= (f24 (f25 f26 (f24 ?v_0 ?v1)) ?v2) (f24 ?v_0 (f19 (f20 f23 ?v1) ?v2))))))
(assert (forall ((?v0 S6) (?v1 S6) (?v2 S6)) (let ((?v_0 (f20 f21 ?v0))) (= (f19 (f20 f23 (f19 ?v_0 ?v1)) (f19 ?v_0 ?v2)) (f19 ?v_0 (f19 (f20 f22 ?v1) ?v2))))))
(assert (forall ((?v0 S3) (?v1 S6) (?v2 S6)) (let ((?v_0 (f12 f13 ?v0))) (= (f3 (f4 f6 (f11 ?v_0 ?v1)) (f11 ?v_0 ?v2)) (f11 ?v_0 (f19 (f20 f22 ?v1) ?v2))))))
(assert (forall ((?v0 S11) (?v1 S6) (?v2 S6)) (let ((?v_0 (f25 f26 ?v0))) (= (f27 (f28 f30 (f24 ?v_0 ?v1)) (f24 ?v_0 ?v2)) (f24 ?v_0 (f19 (f20 f22 ?v1) ?v2))))))
(assert (forall ((?v0 S6)) (= (f19 (f20 f23 (f15 f16 (f3 f8 (f3 f9 f10)))) ?v0) (f19 (f20 f22 ?v0) ?v0))))
(assert (forall ((?v0 S6)) (= (f19 (f20 f23 ?v0) (f15 f16 (f3 f8 (f3 f9 f10)))) (f19 (f20 f22 ?v0) ?v0))))
(assert (forall ((?v0 S3) (?v1 S3) (?v2 S3) (?v3 S3)) (let ((?v_0 (f4 f6 ?v0))) (= (f3 (f4 f6 (f3 ?v_0 ?v1)) (f3 (f4 f6 ?v2) ?v3)) (f3 (f4 f6 (f3 ?v_0 ?v2)) (f3 (f4 f6 ?v1) ?v3))))))
(assert (forall ((?v0 S6) (?v1 S6) (?v2 S6) (?v3 S6)) (let ((?v_0 (f20 f23 ?v0))) (= (f19 (f20 f23 (f19 ?v_0 ?v1)) (f19 (f20 f23 ?v2) ?v3)) (f19 (f20 f23 (f19 ?v_0 ?v2)) (f19 (f20 f23 ?v1) ?v3))))))
(assert (forall ((?v0 S11) (?v1 S11) (?v2 S11) (?v3 S11)) (let ((?v_0 (f28 f30 ?v0))) (= (f27 (f28 f30 (f27 ?v_0 ?v1)) (f27 (f28 f30 ?v2) ?v3)) (f27 (f28 f30 (f27 ?v_0 ?v2)) (f27 (f28 f30 ?v1) ?v3))))))
(assert (forall ((?v0 S3) (?v1 S3) (?v2 S3) (?v3 S3)) (let ((?v_1 (f4 f6 (f3 (f4 f6 ?v0) ?v1))) (?v_0 (f4 f6 ?v2))) (= (f3 ?v_1 (f3 ?v_0 ?v3)) (f3 ?v_0 (f3 ?v_1 ?v3))))))
(assert (forall ((?v0 S6) (?v1 S6) (?v2 S6) (?v3 S6)) (let ((?v_1 (f20 f23 (f19 (f20 f23 ?v0) ?v1))) (?v_0 (f20 f23 ?v2))) (= (f19 ?v_1 (f19 ?v_0 ?v3)) (f19 ?v_0 (f19 ?v_1 ?v3))))))
(assert (forall ((?v0 S11) (?v1 S11) (?v2 S11) (?v3 S11)) (let ((?v_1 (f28 f30 (f27 (f28 f30 ?v0) ?v1))) (?v_0 (f28 f30 ?v2))) (= (f27 ?v_1 (f27 ?v_0 ?v3)) (f27 ?v_0 (f27 ?v_1 ?v3))))))
(assert (forall ((?v0 S3) (?v1 S3) (?v2 S3) (?v3 S3)) (let ((?v_0 (f4 f6 ?v0)) (?v_1 (f3 (f4 f6 ?v2) ?v3))) (= (f3 (f4 f6 (f3 ?v_0 ?v1)) ?v_1) (f3 ?v_0 (f3 (f4 f6 ?v1) ?v_1))))))
(assert (forall ((?v0 S6) (?v1 S6) (?v2 S6) (?v3 S6)) (let ((?v_0 (f20 f23 ?v0)) (?v_1 (f19 (f20 f23 ?v2) ?v3))) (= (f19 (f20 f23 (f19 ?v_0 ?v1)) ?v_1) (f19 ?v_0 (f19 (f20 f23 ?v1) ?v_1))))))
(assert (forall ((?v0 S11) (?v1 S11) (?v2 S11) (?v3 S11)) (let ((?v_0 (f28 f30 ?v0)) (?v_1 (f27 (f28 f30 ?v2) ?v3))) (= (f27 (f28 f30 (f27 ?v_0 ?v1)) ?v_1) (f27 ?v_0 (f27 (f28 f30 ?v1) ?v_1))))))
(assert (forall ((?v0 S3) (?v1 S3) (?v2 S3)) (let ((?v_0 (f4 f6 ?v0))) (= (f3 (f4 f6 (f3 ?v_0 ?v1)) ?v2) (f3 (f4 f6 (f3 ?v_0 ?v2)) ?v1)))))
(assert (forall ((?v0 S6) (?v1 S6) (?v2 S6)) (let ((?v_0 (f20 f23 ?v0))) (= (f19 (f20 f23 (f19 ?v_0 ?v1)) ?v2) (f19 (f20 f23 (f19 ?v_0 ?v2)) ?v1)))))
(assert (forall ((?v0 S11) (?v1 S11) (?v2 S11)) (let ((?v_0 (f28 f30 ?v0))) (= (f27 (f28 f30 (f27 ?v_0 ?v1)) ?v2) (f27 (f28 f30 (f27 ?v_0 ?v2)) ?v1)))))
(assert (forall ((?v0 S3) (?v1 S3) (?v2 S3)) (let ((?v_0 (f4 f6 ?v0))) (= (f3 (f4 f6 (f3 ?v_0 ?v1)) ?v2) (f3 ?v_0 (f3 (f4 f6 ?v1) ?v2))))))
(assert (forall ((?v0 S6) (?v1 S6) (?v2 S6)) (let ((?v_0 (f20 f23 ?v0))) (= (f19 (f20 f23 (f19 ?v_0 ?v1)) ?v2) (f19 ?v_0 (f19 (f20 f23 ?v1) ?v2))))))
(assert (forall ((?v0 S11) (?v1 S11) (?v2 S11)) (let ((?v_0 (f28 f30 ?v0))) (= (f27 (f28 f30 (f27 ?v_0 ?v1)) ?v2) (f27 ?v_0 (f27 (f28 f30 ?v1) ?v2))))))
(assert (forall ((?v0 S3) (?v1 S3) (?v2 S3)) (let ((?v_0 (f4 f6 ?v0))) (= (f3 ?v_0 (f3 (f4 f6 ?v1) ?v2)) (f3 (f4 f6 (f3 ?v_0 ?v1)) ?v2)))))
(assert (forall ((?v0 S6) (?v1 S6) (?v2 S6)) (let ((?v_0 (f20 f23 ?v0))) (= (f19 ?v_0 (f19 (f20 f23 ?v1) ?v2)) (f19 (f20 f23 (f19 ?v_0 ?v1)) ?v2)))))
(assert (forall ((?v0 S11) (?v1 S11) (?v2 S11)) (let ((?v_0 (f28 f30 ?v0))) (= (f27 ?v_0 (f27 (f28 f30 ?v1) ?v2)) (f27 (f28 f30 (f27 ?v_0 ?v1)) ?v2)))))
(assert (forall ((?v0 S3) (?v1 S3) (?v2 S3)) (let ((?v_1 (f4 f6 ?v0)) (?v_0 (f4 f6 ?v1))) (= (f3 ?v_1 (f3 ?v_0 ?v2)) (f3 ?v_0 (f3 ?v_1 ?v2))))))
(assert (forall ((?v0 S6) (?v1 S6) (?v2 S6)) (let ((?v_1 (f20 f23 ?v0)) (?v_0 (f20 f23 ?v1))) (= (f19 ?v_1 (f19 ?v_0 ?v2)) (f19 ?v_0 (f19 ?v_1 ?v2))))))
(assert (forall ((?v0 S11) (?v1 S11) (?v2 S11)) (let ((?v_1 (f28 f30 ?v0)) (?v_0 (f28 f30 ?v1))) (= (f27 ?v_1 (f27 ?v_0 ?v2)) (f27 ?v_0 (f27 ?v_1 ?v2))))))
(assert (forall ((?v0 S3) (?v1 S3)) (= (f3 (f4 f6 ?v0) ?v1) (f3 (f4 f6 ?v1) ?v0))))
(assert (forall ((?v0 S6) (?v1 S6)) (= (f19 (f20 f23 ?v0) ?v1) (f19 (f20 f23 ?v1) ?v0))))
(assert (forall ((?v0 S11) (?v1 S11)) (= (f27 (f28 f30 ?v0) ?v1) (f27 (f28 f30 ?v1) ?v0))))
(assert (forall ((?v0 S3) (?v1 S3) (?v2 S3) (?v3 S3)) (let ((?v_0 (f4 f5 ?v0))) (= (f3 (f4 f5 (f3 ?v_0 ?v1)) (f3 (f4 f5 ?v2) ?v3)) (f3 (f4 f5 (f3 ?v_0 ?v2)) (f3 (f4 f5 ?v1) ?v3))))))
(assert (forall ((?v0 S6) (?v1 S6) (?v2 S6) (?v3 S6)) (let ((?v_0 (f20 f22 ?v0))) (= (f19 (f20 f22 (f19 ?v_0 ?v1)) (f19 (f20 f22 ?v2) ?v3)) (f19 (f20 f22 (f19 ?v_0 ?v2)) (f19 (f20 f22 ?v1) ?v3))))))
(assert (forall ((?v0 S11) (?v1 S11) (?v2 S11) (?v3 S11)) (let ((?v_0 (f28 f29 ?v0))) (= (f27 (f28 f29 (f27 ?v_0 ?v1)) (f27 (f28 f29 ?v2) ?v3)) (f27 (f28 f29 (f27 ?v_0 ?v2)) (f27 (f28 f29 ?v1) ?v3))))))
(assert (forall ((?v0 S3) (?v1 S3) (?v2 S3)) (let ((?v_0 (f4 f5 ?v0))) (= (f3 (f4 f5 (f3 ?v_0 ?v1)) ?v2) (f3 (f4 f5 (f3 ?v_0 ?v2)) ?v1)))))
(assert (forall ((?v0 S6) (?v1 S6) (?v2 S6)) (let ((?v_0 (f20 f22 ?v0))) (= (f19 (f20 f22 (f19 ?v_0 ?v1)) ?v2) (f19 (f20 f22 (f19 ?v_0 ?v2)) ?v1)))))
(assert (forall ((?v0 S11) (?v1 S11) (?v2 S11)) (let ((?v_0 (f28 f29 ?v0))) (= (f27 (f28 f29 (f27 ?v_0 ?v1)) ?v2) (f27 (f28 f29 (f27 ?v_0 ?v2)) ?v1)))))
(assert (forall ((?v0 S3) (?v1 S3) (?v2 S3)) (let ((?v_0 (f4 f5 ?v0))) (= (f3 (f4 f5 (f3 ?v_0 ?v1)) ?v2) (f3 ?v_0 (f3 (f4 f5 ?v1) ?v2))))))
(assert (forall ((?v0 S6) (?v1 S6) (?v2 S6)) (let ((?v_0 (f20 f22 ?v0))) (= (f19 (f20 f22 (f19 ?v_0 ?v1)) ?v2) (f19 ?v_0 (f19 (f20 f22 ?v1) ?v2))))))
(assert (forall ((?v0 S11) (?v1 S11) (?v2 S11)) (let ((?v_0 (f28 f29 ?v0))) (= (f27 (f28 f29 (f27 ?v_0 ?v1)) ?v2) (f27 ?v_0 (f27 (f28 f29 ?v1) ?v2))))))
(assert (forall ((?v0 S3) (?v1 S3) (?v2 S3)) (let ((?v_0 (f4 f5 ?v0))) (= (f3 ?v_0 (f3 (f4 f5 ?v1) ?v2)) (f3 (f4 f5 (f3 ?v_0 ?v1)) ?v2)))))
(assert (forall ((?v0 S6) (?v1 S6) (?v2 S6)) (let ((?v_0 (f20 f22 ?v0))) (= (f19 ?v_0 (f19 (f20 f22 ?v1) ?v2)) (f19 (f20 f22 (f19 ?v_0 ?v1)) ?v2)))))
(assert (forall ((?v0 S11) (?v1 S11) (?v2 S11)) (let ((?v_0 (f28 f29 ?v0))) (= (f27 ?v_0 (f27 (f28 f29 ?v1) ?v2)) (f27 (f28 f29 (f27 ?v_0 ?v1)) ?v2)))))
(assert (forall ((?v0 S3) (?v1 S3) (?v2 S3)) (let ((?v_1 (f4 f5 ?v0)) (?v_0 (f4 f5 ?v1))) (= (f3 ?v_1 (f3 ?v_0 ?v2)) (f3 ?v_0 (f3 ?v_1 ?v2))))))
(assert (forall ((?v0 S6) (?v1 S6) (?v2 S6)) (let ((?v_1 (f20 f22 ?v0)) (?v_0 (f20 f22 ?v1))) (= (f19 ?v_1 (f19 ?v_0 ?v2)) (f19 ?v_0 (f19 ?v_1 ?v2))))))
(assert (forall ((?v0 S11) (?v1 S11) (?v2 S11)) (let ((?v_1 (f28 f29 ?v0)) (?v_0 (f28 f29 ?v1))) (= (f27 ?v_1 (f27 ?v_0 ?v2)) (f27 ?v_0 (f27 ?v_1 ?v2))))))
(assert (forall ((?v0 S3) (?v1 S3)) (= (f3 (f4 f5 ?v0) ?v1) (f3 (f4 f5 ?v1) ?v0))))
(assert (forall ((?v0 S6) (?v1 S6)) (= (f19 (f20 f22 ?v0) ?v1) (f19 (f20 f22 ?v1) ?v0))))
(assert (forall ((?v0 S11) (?v1 S11)) (= (f27 (f28 f29 ?v0) ?v1) (f27 (f28 f29 ?v1) ?v0))))
(assert (forall ((?v0 S6) (?v1 S6)) (let ((?v_1 (f15 f16 (f3 f8 (f3 f9 f10)))) (?v_0 (f20 f21 ?v0))) (= (f19 ?v_0 (f19 (f20 f23 ?v_1) ?v1)) (f19 (f20 f21 (f19 ?v_0 ?v1)) ?v_1)))))
(assert (forall ((?v0 S3) (?v1 S6)) (let ((?v_1 (f15 f16 (f3 f8 (f3 f9 f10)))) (?v_0 (f12 f13 ?v0))) (= (f11 ?v_0 (f19 (f20 f23 ?v_1) ?v1)) (f11 (f12 f13 (f11 ?v_0 ?v1)) ?v_1)))))
(assert (forall ((?v0 S11) (?v1 S6)) (let ((?v_1 (f15 f16 (f3 f8 (f3 f9 f10)))) (?v_0 (f25 f26 ?v0))) (= (f24 ?v_0 (f19 (f20 f23 ?v_1) ?v1)) (f24 (f25 f26 (f24 ?v_0 ?v1)) ?v_1)))))
(assert (forall ((?v0 S3) (?v1 S3) (?v2 S3) (?v3 S3)) (let ((?v_0 (f4 f6 ?v0)) (?v_1 (f4 f6 ?v2))) (= (= (f3 (f4 f5 (f3 ?v_0 ?v1)) (f3 ?v_1 ?v3)) (f3 (f4 f5 (f3 ?v_0 ?v3)) (f3 ?v_1 ?v1))) (or (= ?v0 ?v2) (= ?v1 ?v3))))))
(assert (forall ((?v0 S6) (?v1 S6) (?v2 S6) (?v3 S6)) (let ((?v_0 (f20 f23 ?v0)) (?v_1 (f20 f23 ?v2))) (= (= (f19 (f20 f22 (f19 ?v_0 ?v1)) (f19 ?v_1 ?v3)) (f19 (f20 f22 (f19 ?v_0 ?v3)) (f19 ?v_1 ?v1))) (or (= ?v0 ?v2) (= ?v1 ?v3))))))
(assert (forall ((?v0 S11) (?v1 S11) (?v2 S11) (?v3 S11)) (let ((?v_0 (f28 f30 ?v0)) (?v_1 (f28 f30 ?v2))) (= (= (f27 (f28 f29 (f27 ?v_0 ?v1)) (f27 ?v_1 ?v3)) (f27 (f28 f29 (f27 ?v_0 ?v3)) (f27 ?v_1 ?v1))) (or (= ?v0 ?v2) (= ?v1 ?v3))))))
(assert (forall ((?v0 S3) (?v1 S3) (?v2 S3)) (= (f3 (f4 f5 (f3 (f4 f6 ?v0) ?v1)) (f3 (f4 f6 ?v2) ?v1)) (f3 (f4 f6 (f3 (f4 f5 ?v0) ?v2)) ?v1))))
(assert (forall ((?v0 S6) (?v1 S6) (?v2 S6)) (= (f19 (f20 f22 (f19 (f20 f23 ?v0) ?v1)) (f19 (f20 f23 ?v2) ?v1)) (f19 (f20 f23 (f19 (f20 f22 ?v0) ?v2)) ?v1))))
(assert (forall ((?v0 S11) (?v1 S11) (?v2 S11)) (= (f27 (f28 f29 (f27 (f28 f30 ?v0) ?v1)) (f27 (f28 f30 ?v2) ?v1)) (f27 (f28 f30 (f27 (f28 f29 ?v0) ?v2)) ?v1))))
(assert (forall ((?v0 S3) (?v1 S3) (?v2 S3)) (= (f3 (f4 f6 (f3 (f4 f5 ?v0) ?v1)) ?v2) (f3 (f4 f5 (f3 (f4 f6 ?v0) ?v2)) (f3 (f4 f6 ?v1) ?v2)))))
(assert (forall ((?v0 S6) (?v1 S6) (?v2 S6)) (= (f19 (f20 f23 (f19 (f20 f22 ?v0) ?v1)) ?v2) (f19 (f20 f22 (f19 (f20 f23 ?v0) ?v2)) (f19 (f20 f23 ?v1) ?v2)))))
(assert (forall ((?v0 S11) (?v1 S11) (?v2 S11)) (= (f27 (f28 f30 (f27 (f28 f29 ?v0) ?v1)) ?v2) (f27 (f28 f29 (f27 (f28 f30 ?v0) ?v2)) (f27 (f28 f30 ?v1) ?v2)))))
(assert (forall ((?v0 S3) (?v1 S3) (?v2 S3) (?v3 S3)) (let ((?v_0 (f4 f6 ?v0)) (?v_1 (f4 f6 ?v1))) (= (and (not (= ?v0 ?v1)) (not (= ?v2 ?v3))) (not (= (f3 (f4 f5 (f3 ?v_0 ?v2)) (f3 ?v_1 ?v3)) (f3 (f4 f5 (f3 ?v_0 ?v3)) (f3 ?v_1 ?v2))))))))
(assert (forall ((?v0 S6) (?v1 S6) (?v2 S6) (?v3 S6)) (let ((?v_0 (f20 f23 ?v0)) (?v_1 (f20 f23 ?v1))) (= (and (not (= ?v0 ?v1)) (not (= ?v2 ?v3))) (not (= (f19 (f20 f22 (f19 ?v_0 ?v2)) (f19 ?v_1 ?v3)) (f19 (f20 f22 (f19 ?v_0 ?v3)) (f19 ?v_1 ?v2))))))))
(assert (forall ((?v0 S11) (?v1 S11) (?v2 S11) (?v3 S11)) (let ((?v_0 (f28 f30 ?v0)) (?v_1 (f28 f30 ?v1))) (= (and (not (= ?v0 ?v1)) (not (= ?v2 ?v3))) (not (= (f27 (f28 f29 (f27 ?v_0 ?v2)) (f27 ?v_1 ?v3)) (f27 (f28 f29 (f27 ?v_0 ?v3)) (f27 ?v_1 ?v2))))))))
(assert (forall ((?v0 S3) (?v1 S3) (?v2 S3)) (let ((?v_0 (f4 f6 ?v0))) (= (f3 ?v_0 (f3 (f4 f5 ?v1) ?v2)) (f3 (f4 f5 (f3 ?v_0 ?v1)) (f3 ?v_0 ?v2))))))
(assert (forall ((?v0 S6) (?v1 S6) (?v2 S6)) (let ((?v_0 (f20 f23 ?v0))) (= (f19 ?v_0 (f19 (f20 f22 ?v1) ?v2)) (f19 (f20 f22 (f19 ?v_0 ?v1)) (f19 ?v_0 ?v2))))))
(assert (forall ((?v0 S11) (?v1 S11) (?v2 S11)) (let ((?v_0 (f28 f30 ?v0))) (= (f27 ?v_0 (f27 (f28 f29 ?v1) ?v2)) (f27 (f28 f29 (f27 ?v_0 ?v1)) (f27 ?v_0 ?v2))))))
(assert (forall ((?v0 S6) (?v1 S6) (?v2 S6)) (= (f19 (f20 f21 (f19 (f20 f23 ?v0) ?v1)) ?v2) (f19 (f20 f23 (f19 (f20 f21 ?v0) ?v2)) (f19 (f20 f21 ?v1) ?v2)))))
(assert (forall ((?v0 S3) (?v1 S3) (?v2 S6)) (= (f11 (f12 f13 (f3 (f4 f6 ?v0) ?v1)) ?v2) (f3 (f4 f6 (f11 (f12 f13 ?v0) ?v2)) (f11 (f12 f13 ?v1) ?v2)))))
(assert (forall ((?v0 S11) (?v1 S11) (?v2 S6)) (= (f24 (f25 f26 (f27 (f28 f30 ?v0) ?v1)) ?v2) (f27 (f28 f30 (f24 (f25 f26 ?v0) ?v2)) (f24 (f25 f26 ?v1) ?v2)))))
(assert (forall ((?v0 S6)) (= (f19 (f20 f21 ?v0) (f15 f16 (f3 f9 (f3 f9 f10)))) (f19 (f20 f23 (f19 (f20 f23 ?v0) ?v0)) ?v0))))
(assert (forall ((?v0 S3)) (= (f11 (f12 f13 ?v0) (f15 f16 (f3 f9 (f3 f9 f10)))) (f3 (f4 f6 (f3 (f4 f6 ?v0) ?v0)) ?v0))))
(assert (forall ((?v0 S11)) (= (f24 (f25 f26 ?v0) (f15 f16 (f3 f9 (f3 f9 f10)))) (f27 (f28 f30 (f27 (f28 f30 ?v0) ?v0)) ?v0))))
(assert (forall ((?v0 S3)) (let ((?v_2 (f3 f8 (f3 f9 f10)))) (let ((?v_0 (f15 f16 ?v_2)) (?v_1 (f12 f13 ?v0))) (= (f11 (f12 f13 (f11 ?v_1 ?v_0)) ?v_0) (f11 ?v_1 (f15 f16 (f3 f8 ?v_2))))))))
(assert (forall ((?v0 S3)) (let ((?v_0 (f15 f16 (f3 f9 (f3 f9 f10))))) (= (f3 f18 (f11 (f12 f13 ?v0) ?v_0)) (f11 (f12 f13 (f3 f18 ?v0)) ?v_0)))))
(assert (forall ((?v0 S3)) (= (f3 (f4 f6 (f3 f7 (f3 f8 (f3 f9 f10)))) ?v0) (f3 (f4 f5 ?v0) ?v0))))
(assert (forall ((?v0 S6)) (= (f19 (f20 f23 (f15 f16 (f3 f8 (f3 f9 f10)))) ?v0) (f19 (f20 f22 ?v0) ?v0))))
(assert (forall ((?v0 S11)) (= (f27 (f28 f30 (f31 f32 (f3 f8 (f3 f9 f10)))) ?v0) (f27 (f28 f29 ?v0) ?v0))))
(assert (forall ((?v0 S3)) (= (f3 (f4 f6 (f3 f7 (f3 f8 (f3 f9 f10)))) ?v0) (f3 (f4 f5 ?v0) ?v0))))
(assert (forall ((?v0 S11)) (= (f27 (f28 f30 (f31 f32 (f3 f8 (f3 f9 f10)))) ?v0) (f27 (f28 f29 ?v0) ?v0))))
(assert (forall ((?v0 S3)) (= (f3 (f4 f6 ?v0) (f3 f7 (f3 f8 (f3 f9 f10)))) (f3 (f4 f5 ?v0) ?v0))))
(assert (forall ((?v0 S6)) (= (f19 (f20 f23 ?v0) (f15 f16 (f3 f8 (f3 f9 f10)))) (f19 (f20 f22 ?v0) ?v0))))
(assert (forall ((?v0 S11)) (= (f27 (f28 f30 ?v0) (f31 f32 (f3 f8 (f3 f9 f10)))) (f27 (f28 f29 ?v0) ?v0))))
(assert (forall ((?v0 S3)) (= (f3 (f4 f6 ?v0) (f3 f7 (f3 f8 (f3 f9 f10)))) (f3 (f4 f5 ?v0) ?v0))))
(assert (forall ((?v0 S11)) (= (f27 (f28 f30 ?v0) (f31 f32 (f3 f8 (f3 f9 f10)))) (f27 (f28 f29 ?v0) ?v0))))
(assert (forall ((?v0 S3) (?v1 S3)) (= (f3 (f4 f6 (f3 f9 ?v0)) ?v1) (f3 (f4 f5 (f3 f8 (f3 (f4 f6 ?v0) ?v1))) ?v1))))
(assert (forall ((?v0 S11) (?v1 S11)) (let ((?v_1 (f3 f8 (f3 f9 f10)))) (let ((?v_0 (f15 f16 ?v_1))) (= (f24 (f25 f26 (f27 (f28 f29 ?v0) ?v1)) ?v_0) (f27 (f28 f29 (f27 (f28 f29 (f24 (f25 f26 ?v0) ?v_0)) (f24 (f25 f26 ?v1) ?v_0))) (f27 (f28 f30 (f27 (f28 f30 (f31 f32 ?v_1)) ?v0)) ?v1)))))))
(assert (forall ((?v0 S11)) (let ((?v_0 (f3 f8 (f3 f9 f10)))) (let ((?v_1 (f15 f16 ?v_0))) (= (f27 (f28 f30 (f31 f32 (f3 f8 ?v_0))) (f24 (f25 f26 ?v0) ?v_1)) (f24 (f25 f26 (f27 (f28 f30 (f31 f32 ?v_0)) ?v0)) ?v_1))))))
(assert (forall ((?v0 S3)) (= (f3 (f4 f6 (f3 f7 (f3 f9 f10))) ?v0) ?v0)))
(assert (forall ((?v0 S11)) (= (f27 (f28 f30 (f31 f32 (f3 f9 f10))) ?v0) ?v0)))
(assert (forall ((?v0 S3)) (= (f3 (f4 f6 ?v0) (f3 f7 (f3 f9 f10))) ?v0)))
(assert (forall ((?v0 S11)) (= (f27 (f28 f30 ?v0) (f31 f32 (f3 f9 f10))) ?v0)))
(assert (forall ((?v0 S3) (?v1 S3)) (= (f3 (f4 f5 (f3 f9 ?v0)) (f3 f8 ?v1)) (f3 f9 (f3 (f4 f5 ?v0) ?v1)))))
(assert (forall ((?v0 S3) (?v1 S3)) (= (f3 (f4 f5 (f3 f8 ?v0)) (f3 f9 ?v1)) (f3 f9 (f3 (f4 f5 ?v0) ?v1)))))
(assert (forall ((?v0 S3) (?v1 S3)) (let ((?v_0 (f3 f7 ?v0))) (= (= ?v_0 ?v1) (= ?v1 ?v_0)))))
(assert (forall ((?v0 S3) (?v1 S6)) (let ((?v_0 (f15 f16 ?v0))) (= (= ?v_0 ?v1) (= ?v1 ?v_0)))))
(assert (forall ((?v0 S3) (?v1 S11)) (let ((?v_0 (f31 f32 ?v0))) (= (= ?v_0 ?v1) (= ?v1 ?v_0)))))
(assert (forall ((?v0 S3) (?v1 S3)) (= (= (f3 f7 ?v0) (f3 f7 ?v1)) (= ?v0 ?v1))))
(assert (forall ((?v0 S3) (?v1 S3)) (= (= (f31 f32 ?v0) (f31 f32 ?v1)) (= ?v0 ?v1))))
(assert (forall ((?v0 S3) (?v1 S3)) (= (= (f3 f9 ?v0) (f3 f9 ?v1)) (= ?v0 ?v1))))
(assert (= (= f10 f10) true))
(assert (forall ((?v0 S3) (?v1 S3)) (= (= (f3 f8 ?v0) (f3 f8 ?v1)) (= ?v0 ?v1))))
(assert (forall ((?v0 S3) (?v1 S3)) (= (f3 (f4 f6 ?v0) ?v1) (f3 (f4 f6 ?v1) ?v0))))
(assert (forall ((?v0 S3) (?v1 S3) (?v2 S3)) (let ((?v_0 (f4 f6 ?v0))) (= (f3 (f4 f6 (f3 ?v_0 ?v1)) ?v2) (f3 ?v_0 (f3 (f4 f6 ?v1) ?v2))))))
(assert (forall ((?v0 S3)) (= (f3 f7 ?v0) ?v0)))
(assert (forall ((?v0 S3) (?v1 S3)) (= (f3 (f4 f5 ?v0) ?v1) (f3 (f4 f5 ?v1) ?v0))))
(assert (forall ((?v0 S3) (?v1 S3) (?v2 S3)) (let ((?v_1 (f4 f5 ?v0)) (?v_0 (f4 f5 ?v1))) (= (f3 ?v_1 (f3 ?v_0 ?v2)) (f3 ?v_0 (f3 ?v_1 ?v2))))))
(assert (forall ((?v0 S3) (?v1 S3) (?v2 S3)) (let ((?v_0 (f4 f5 ?v0))) (= (f3 (f4 f5 (f3 ?v_0 ?v1)) ?v2) (f3 ?v_0 (f3 (f4 f5 ?v1) ?v2))))))
(assert (forall ((?v0 S3)) (= (= f10 (f3 f9 ?v0)) false)))
(assert (forall ((?v0 S3)) (= (= (f3 f9 ?v0) f10) false)))
(assert (forall ((?v0 S3) (?v1 S3)) (= (= (f3 f8 ?v0) (f3 f9 ?v1)) false)))
(assert (forall ((?v0 S3) (?v1 S3)) (= (= (f3 f9 ?v0) (f3 f8 ?v1)) false)))
(assert (= (f3 f8 f10) f10))
(assert (forall ((?v0 S3)) (= (= f10 (f3 f8 ?v0)) (= f10 ?v0))))
(assert (forall ((?v0 S3)) (= (= (f3 f8 ?v0) f10) (= ?v0 f10))))
(assert (forall ((?v0 S3)) (= (f3 (f4 f6 f10) ?v0) f10)))
(assert (forall ((?v0 S3) (?v1 S3)) (= (f3 (f4 f6 (f3 f8 ?v0)) ?v1) (f3 f8 (f3 (f4 f6 ?v0) ?v1)))))
(assert (forall ((?v0 S3)) (= (f3 (f4 f5 f10) ?v0) ?v0)))
(assert (forall ((?v0 S3)) (= (f3 (f4 f5 ?v0) f10) ?v0)))
(assert (forall ((?v0 S3)) (= (f3 f8 ?v0) (f3 (f4 f5 ?v0) ?v0))))
(assert (forall ((?v0 S3) (?v1 S3)) (= (f3 (f4 f5 (f3 f8 ?v0)) (f3 f8 ?v1)) (f3 f8 (f3 (f4 f5 ?v0) ?v1)))))
(assert (forall ((?v0 S3) (?v1 S3)) (= (f3 (f4 f6 (f3 f7 ?v0)) (f3 f7 ?v1)) (f3 f7 (f3 (f4 f6 ?v0) ?v1)))))
(assert (forall ((?v0 S3) (?v1 S3) (?v2 S3)) (let ((?v_0 (f4 f6 ?v0))) (= (f3 ?v_0 (f3 (f4 f5 ?v1) ?v2)) (f3 (f4 f5 (f3 ?v_0 ?v1)) (f3 ?v_0 ?v2))))))
(assert (forall ((?v0 S3) (?v1 S3) (?v2 S3)) (= (f3 (f4 f6 (f3 (f4 f5 ?v0) ?v1)) ?v2) (f3 (f4 f5 (f3 (f4 f6 ?v0) ?v2)) (f3 (f4 f6 ?v1) ?v2)))))
(assert (forall ((?v0 S3) (?v1 S3)) (= (f3 (f4 f5 (f3 f7 ?v0)) (f3 f7 ?v1)) (f3 f7 (f3 (f4 f5 ?v0) ?v1)))))
(assert (forall ((?v0 S3) (?v1 S6) (?v2 S6)) (let ((?v_0 (f12 f13 ?v0))) (= (f11 ?v_0 (f19 (f20 f22 ?v1) ?v2)) (f3 (f4 f6 (f11 ?v_0 ?v1)) (f11 ?v_0 ?v2))))))
(assert (forall ((?v0 S3) (?v1 S6) (?v2 S6)) (let ((?v_0 (f12 f13 ?v0))) (= (f11 (f12 f13 (f11 ?v_0 ?v1)) ?v2) (f11 ?v_0 (f19 (f20 f23 ?v1) ?v2))))))
(assert (forall ((?v0 S3) (?v1 S3) (?v2 S3)) (let ((?v_0 (f4 f6 (f3 f7 ?v0)))) (= (f3 ?v_0 (f3 (f4 f5 ?v1) ?v2)) (f3 (f4 f5 (f3 ?v_0 ?v1)) (f3 ?v_0 ?v2))))))
(assert (forall ((?v0 S3) (?v1 S6) (?v2 S6)) (let ((?v_0 (f20 f23 (f15 f16 ?v0)))) (= (f19 ?v_0 (f19 (f20 f22 ?v1) ?v2)) (f19 (f20 f22 (f19 ?v_0 ?v1)) (f19 ?v_0 ?v2))))))
(assert (forall ((?v0 S3) (?v1 S11) (?v2 S11)) (let ((?v_0 (f28 f30 (f31 f32 ?v0)))) (= (f27 ?v_0 (f27 (f28 f29 ?v1) ?v2)) (f27 (f28 f29 (f27 ?v_0 ?v1)) (f27 ?v_0 ?v2))))))
(assert (forall ((?v0 S3) (?v1 S3) (?v2 S3)) (let ((?v_0 (f3 f7 ?v2))) (= (f3 (f4 f6 (f3 (f4 f5 ?v0) ?v1)) ?v_0) (f3 (f4 f5 (f3 (f4 f6 ?v0) ?v_0)) (f3 (f4 f6 ?v1) ?v_0))))))
(assert (forall ((?v0 S6) (?v1 S6) (?v2 S3)) (let ((?v_0 (f15 f16 ?v2))) (= (f19 (f20 f23 (f19 (f20 f22 ?v0) ?v1)) ?v_0) (f19 (f20 f22 (f19 (f20 f23 ?v0) ?v_0)) (f19 (f20 f23 ?v1) ?v_0))))))
(assert (forall ((?v0 S11) (?v1 S11) (?v2 S3)) (let ((?v_0 (f31 f32 ?v2))) (= (f27 (f28 f30 (f27 (f28 f29 ?v0) ?v1)) ?v_0) (f27 (f28 f29 (f27 (f28 f30 ?v0) ?v_0)) (f27 (f28 f30 ?v1) ?v_0))))))
(assert (forall ((?v0 S3)) (= (f3 (f4 f5 ?v0) (f3 f7 f10)) ?v0)))
(assert (forall ((?v0 S11)) (= (f27 (f28 f29 ?v0) (f31 f32 f10)) ?v0)))
(assert (forall ((?v0 S3)) (= (f3 (f4 f5 (f3 f7 f10)) ?v0) ?v0)))
(assert (forall ((?v0 S11)) (= (f27 (f28 f29 (f31 f32 f10)) ?v0) ?v0)))
(assert (forall ((?v0 S3) (?v1 S3)) (= (f3 f7 (f3 (f4 f6 ?v0) ?v1)) (f3 (f4 f6 (f3 f7 ?v0)) (f3 f7 ?v1)))))
(assert (forall ((?v0 S3) (?v1 S3)) (= (f31 f32 (f3 (f4 f6 ?v0) ?v1)) (f27 (f28 f30 (f31 f32 ?v0)) (f31 f32 ?v1)))))
(assert (forall ((?v0 S3) (?v1 S3)) (= (f3 (f4 f6 (f3 f7 ?v0)) (f3 f7 ?v1)) (f3 f7 (f3 (f4 f6 ?v0) ?v1)))))
(assert (forall ((?v0 S3) (?v1 S3)) (= (f27 (f28 f30 (f31 f32 ?v0)) (f31 f32 ?v1)) (f31 f32 (f3 (f4 f6 ?v0) ?v1)))))
(assert (forall ((?v0 S3) (?v1 S3) (?v2 S3)) (= (f3 (f4 f6 (f3 f7 ?v0)) (f3 (f4 f6 (f3 f7 ?v1)) ?v2)) (f3 (f4 f6 (f3 f7 (f3 (f4 f6 ?v0) ?v1))) ?v2))))
(assert (forall ((?v0 S3) (?v1 S3) (?v2 S11)) (= (f27 (f28 f30 (f31 f32 ?v0)) (f27 (f28 f30 (f31 f32 ?v1)) ?v2)) (f27 (f28 f30 (f31 f32 (f3 (f4 f6 ?v0) ?v1))) ?v2))))
(assert (forall ((?v0 S3) (?v1 S3)) (= (f3 f7 (f3 (f4 f5 ?v0) ?v1)) (f3 (f4 f5 (f3 f7 ?v0)) (f3 f7 ?v1)))))
(assert (forall ((?v0 S3) (?v1 S3)) (= (f31 f32 (f3 (f4 f5 ?v0) ?v1)) (f27 (f28 f29 (f31 f32 ?v0)) (f31 f32 ?v1)))))
(assert (forall ((?v0 S3) (?v1 S3)) (= (f3 (f4 f5 (f3 f7 ?v0)) (f3 f7 ?v1)) (f3 f7 (f3 (f4 f5 ?v0) ?v1)))))
(assert (forall ((?v0 S3) (?v1 S3)) (= (f27 (f28 f29 (f31 f32 ?v0)) (f31 f32 ?v1)) (f31 f32 (f3 (f4 f5 ?v0) ?v1)))))
(assert (forall ((?v0 S3) (?v1 S3) (?v2 S3)) (= (f3 (f4 f5 (f3 f7 ?v0)) (f3 (f4 f5 (f3 f7 ?v1)) ?v2)) (f3 (f4 f5 (f3 f7 (f3 (f4 f5 ?v0) ?v1))) ?v2))))
(assert (forall ((?v0 S3) (?v1 S3) (?v2 S11)) (= (f27 (f28 f29 (f31 f32 ?v0)) (f27 (f28 f29 (f31 f32 ?v1)) ?v2)) (f27 (f28 f29 (f31 f32 (f3 (f4 f5 ?v0) ?v1))) ?v2))))
(assert (forall ((?v0 S6) (?v1 S6) (?v2 S6)) (let ((?v_0 (f20 f21 ?v0))) (= (f19 ?v_0 (f19 (f20 f22 ?v1) ?v2)) (f19 (f20 f23 (f19 ?v_0 ?v1)) (f19 ?v_0 ?v2))))))
(assert (forall ((?v0 S3) (?v1 S6) (?v2 S6)) (let ((?v_0 (f12 f13 ?v0))) (= (f11 ?v_0 (f19 (f20 f22 ?v1) ?v2)) (f3 (f4 f6 (f11 ?v_0 ?v1)) (f11 ?v_0 ?v2))))))
(assert (forall ((?v0 S11) (?v1 S6) (?v2 S6)) (let ((?v_0 (f25 f26 ?v0))) (= (f24 ?v_0 (f19 (f20 f22 ?v1) ?v2)) (f27 (f28 f30 (f24 ?v_0 ?v1)) (f24 ?v_0 ?v2))))))
(assert (let ((?v_0 (f4 f6 (f3 f7 (f3 f8 (f3 f9 f10)))))) (and (= (f34 f35 (f3 ?v_0 (f3 f18 f14))) f1) (= (f34 f35 (f3 ?v_0 (f3 f18 f17))) f1))))
(assert (forall ((?v0 S3) (?v1 S3)) (let ((?v_1 (f3 f8 (f3 f9 f10)))) (let ((?v_0 (f15 f16 ?v_1))) (= (f11 (f12 f13 (f3 (f4 f36 ?v0) ?v1)) ?v_0) (f3 (f4 f5 (f3 (f4 f36 (f11 (f12 f13 ?v0) ?v_0)) (f3 (f4 f6 (f3 (f4 f6 (f3 f7 ?v_1)) ?v0)) ?v1))) (f11 (f12 f13 ?v1) ?v_0)))))))
(assert (forall ((?v0 S3) (?v1 S3)) (let ((?v_3 (f3 f9 f10))) (let ((?v_5 (f15 f16 (f3 f8 ?v_3))) (?v_1 (f3 f9 ?v_3))) (let ((?v_0 (f15 f16 ?v_1)) (?v_4 (f4 f6 (f3 f7 ?v_1))) (?v_2 (f12 f13 ?v0)) (?v_6 (f12 f13 ?v1))) (= (f11 (f12 f13 (f3 (f4 f36 ?v0) ?v1)) ?v_0) (f3 (f4 f36 (f3 (f4 f5 (f3 (f4 f36 (f11 ?v_2 ?v_0)) (f3 (f4 f6 (f3 ?v_4 (f11 ?v_2 ?v_5))) ?v1))) (f3 (f4 f6 (f3 ?v_4 ?v0)) (f11 ?v_6 ?v_5)))) (f11 ?v_6 ?v_0))))))))
(assert (forall ((?v0 S3) (?v1 S3)) (let ((?v_1 (f3 f8 (f3 f9 f10)))) (let ((?v_0 (f15 f16 ?v_1))) (= (f11 (f12 f13 (f3 (f4 f36 ?v0) ?v1)) ?v_0) (f3 (f4 f36 (f3 (f4 f5 (f11 (f12 f13 ?v0) ?v_0)) (f11 (f12 f13 ?v1) ?v_0))) (f3 (f4 f6 (f3 (f4 f6 (f3 f7 ?v_1)) ?v0)) ?v1)))))))
(assert (forall ((?v0 S11) (?v1 S11)) (let ((?v_1 (f3 f8 (f3 f9 f10)))) (let ((?v_0 (f15 f16 ?v_1))) (= (f24 (f25 f26 (f27 (f28 f37 ?v0) ?v1)) ?v_0) (f27 (f28 f37 (f27 (f28 f29 (f24 (f25 f26 ?v0) ?v_0)) (f24 (f25 f26 ?v1) ?v_0))) (f27 (f28 f30 (f27 (f28 f30 (f31 f32 ?v_1)) ?v0)) ?v1)))))))
(assert (forall ((?v0 S11) (?v1 S11) (?v2 S11)) (= (f27 (f28 f30 (f27 (f28 f29 ?v0) ?v1)) ?v2) (f27 (f28 f29 (f27 (f28 f30 ?v0) ?v2)) (f27 (f28 f30 ?v1) ?v2)))))
(assert (forall ((?v0 S6) (?v1 S6) (?v2 S6) (?v3 S6)) (= (f19 (f20 f22 (f19 (f20 f23 ?v0) ?v1)) (f19 (f20 f22 (f19 (f20 f23 ?v2) ?v1)) ?v3)) (f19 (f20 f22 (f19 (f20 f23 (f19 (f20 f22 ?v0) ?v2)) ?v1)) ?v3))))
(assert (forall ((?v0 S3) (?v1 S3)) (= (f31 f32 (f3 (f4 f36 ?v0) ?v1)) (f27 (f28 f37 (f31 f32 ?v0)) (f31 f32 ?v1)))))
(assert (forall ((?v0 S3) (?v1 S3)) (= (f3 f7 (f3 (f4 f36 ?v0) ?v1)) (f3 (f4 f36 (f3 f7 ?v0)) (f3 f7 ?v1)))))
(assert (forall ((?v0 S3) (?v1 S3)) (= (= (f34 (f3 f7 ?v0) (f3 f7 ?v1)) f1) (= (f34 ?v0 ?v1) f1))))
(assert (forall ((?v0 S3) (?v1 S3)) (= (= (f38 (f31 f32 ?v0) (f31 f32 ?v1)) f1) (= (f34 ?v0 ?v1) f1))))
(assert (forall ((?v0 S11) (?v1 S6)) (= (= (f24 (f25 f26 ?v0) ?v1) f39) (and (= ?v0 f39) (not (= ?v1 f40))))))
(assert (forall ((?v0 S3) (?v1 S6)) (= (= (f11 (f12 f13 ?v0) ?v1) f35) (and (= ?v0 f35) (not (= ?v1 f40))))))
(assert (forall ((?v0 S6) (?v1 S6)) (= (= (f19 (f20 f21 ?v0) ?v1) f40) (and (= ?v0 f40) (not (= ?v1 f40))))))
(assert (forall ((?v0 S11) (?v1 S6)) (=> (= (f38 f39 ?v0) f1) (= (f38 f39 (f24 (f25 f26 ?v0) ?v1)) f1))))
(assert (forall ((?v0 S3) (?v1 S6)) (=> (= (f34 f35 ?v0) f1) (= (f34 f35 (f11 (f12 f13 ?v0) ?v1)) f1))))
(assert (forall ((?v0 S6) (?v1 S6)) (=> (= (f41 f40 ?v0) f1) (= (f41 f40 (f19 (f20 f21 ?v0) ?v1)) f1))))
(assert (forall ((?v0 S11) (?v1 S11) (?v2 S6)) (=> (= (f38 ?v0 ?v1) f1) (=> (= (f38 f39 ?v0) f1) (= (f38 (f24 (f25 f26 ?v0) ?v2) (f24 (f25 f26 ?v1) ?v2)) f1)))))
(assert (forall ((?v0 S3) (?v1 S3) (?v2 S6)) (=> (= (f34 ?v0 ?v1) f1) (=> (= (f34 f35 ?v0) f1) (= (f34 (f11 (f12 f13 ?v0) ?v2) (f11 (f12 f13 ?v1) ?v2)) f1)))))
(assert (forall ((?v0 S6) (?v1 S6) (?v2 S6)) (=> (= (f41 ?v0 ?v1) f1) (=> (= (f41 f40 ?v0) f1) (= (f41 (f19 (f20 f21 ?v0) ?v2) (f19 (f20 f21 ?v1) ?v2)) f1)))))
(assert (forall ((?v0 S3)) (= (= (f38 (f31 f32 ?v0) f39) f1) (= (f34 ?v0 f10) f1))))
(assert (forall ((?v0 S3)) (= (= (f34 (f3 f7 ?v0) f35) f1) (= (f34 ?v0 f10) f1))))
(assert (forall ((?v0 S3)) (= (= (f38 f39 (f31 f32 ?v0)) f1) (= (f34 f10 ?v0) f1))))
(assert (forall ((?v0 S3)) (= (= (f34 f35 (f3 f7 ?v0)) f1) (= (f34 f10 ?v0) f1))))
(assert (forall ((?v0 S3) (?v1 S3)) (=> (= (f34 ?v0 ?v1) f1) (=> (= (f34 ?v1 ?v0) f1) (= ?v0 ?v1)))))
(assert (forall ((?v0 S3) (?v1 S3) (?v2 S3)) (=> (= (f34 ?v0 ?v1) f1) (=> (= (f34 ?v1 ?v2) f1) (= (f34 ?v0 ?v2) f1)))))
(assert (forall ((?v0 S3) (?v1 S3)) (or (= (f34 ?v0 ?v1) f1) (= (f34 ?v1 ?v0) f1))))
(assert (forall ((?v0 S3)) (= (f34 ?v0 ?v0) f1)))
(assert (forall ((?v0 S11) (?v1 S6)) (=> (not (= ?v0 f39)) (not (= (f24 (f25 f26 ?v0) ?v1) f39)))))
(assert (forall ((?v0 S3) (?v1 S6)) (=> (not (= ?v0 f35)) (not (= (f11 (f12 f13 ?v0) ?v1) f35)))))
(assert (forall ((?v0 S11) (?v1 S6)) (= (f38 f39 (f24 (f25 f26 (f27 f33 ?v0)) ?v1)) f1)))
(assert (forall ((?v0 S3) (?v1 S6)) (= (f34 f35 (f11 (f12 f13 (f3 f18 ?v0)) ?v1)) f1)))
(assert (forall ((?v0 S3) (?v1 S3)) (= (= (f34 (f3 (f4 f5 (f3 (f4 f6 ?v0) ?v0)) (f3 (f4 f6 ?v1) ?v1)) f35) f1) (and (= ?v0 f35) (= ?v1 f35)))))
(assert (forall ((?v0 S11) (?v1 S11)) (= (= (f38 (f27 (f28 f29 (f27 (f28 f30 ?v0) ?v0)) (f27 (f28 f30 ?v1) ?v1)) f39) f1) (and (= ?v0 f39) (= ?v1 f39)))))
(assert (forall ((?v0 S3) (?v1 S3)) (= (f34 f35 (f3 (f4 f5 (f3 (f4 f6 ?v0) ?v0)) (f3 (f4 f6 ?v1) ?v1))) f1)))
(assert (forall ((?v0 S11) (?v1 S11)) (= (f38 f39 (f27 (f28 f29 (f27 (f28 f30 ?v0) ?v0)) (f27 (f28 f30 ?v1) ?v1))) f1)))
(assert (forall ((?v0 S3) (?v1 S6)) (= (f34 f35 (f11 (f12 f13 (f3 f18 ?v0)) ?v1)) f1)))
(assert (forall ((?v0 S3)) (= (f3 (f4 f36 ?v0) f10) ?v0)))
(assert (forall ((?v0 S3) (?v1 S3)) (= (f3 (f4 f36 (f3 f8 ?v0)) (f3 f8 ?v1)) (f3 f8 (f3 (f4 f36 ?v0) ?v1)))))
(assert (forall ((?v0 S3) (?v1 S3) (?v2 S3)) (= (f3 (f4 f6 (f3 (f4 f36 ?v0) ?v1)) ?v2) (f3 (f4 f36 (f3 (f4 f6 ?v0) ?v2)) (f3 (f4 f6 ?v1) ?v2)))))
(assert (forall ((?v0 S3) (?v1 S3) (?v2 S3)) (let ((?v_0 (f4 f6 ?v0))) (= (f3 ?v_0 (f3 (f4 f36 ?v1) ?v2)) (f3 (f4 f36 (f3 ?v_0 ?v1)) (f3 ?v_0 ?v2))))))
(assert (forall ((?v0 S3) (?v1 S3)) (= (= (f34 (f3 f9 ?v0) (f3 f9 ?v1)) f1) (= (f34 ?v0 ?v1) f1))))
(assert (forall ((?v0 S3) (?v1 S3)) (= (= (f34 (f3 f9 ?v0) (f3 f9 ?v1)) f1) (= (f34 ?v0 ?v1) f1))))
(assert (= (= (f34 f10 f10) f1) true))
(assert (forall ((?v0 S3) (?v1 S3)) (= (= (f34 (f3 f8 ?v0) (f3 f8 ?v1)) f1) (= (f34 ?v0 ?v1) f1))))
(assert (forall ((?v0 S3) (?v1 S3)) (= (= (f34 (f3 f8 ?v0) (f3 f8 ?v1)) f1) (= (f34 ?v0 ?v1) f1))))
(assert (forall ((?v0 S11)) (= (f27 (f28 f30 ?v0) f39) f39)))
(assert (forall ((?v0 S3)) (= (f3 (f4 f6 ?v0) f35) f35)))
(assert (forall ((?v0 S6)) (= (f19 (f20 f23 ?v0) f40) f40)))
(assert (forall ((?v0 S11)) (= (f27 (f28 f30 f39) ?v0) f39)))
(assert (forall ((?v0 S3)) (= (f3 (f4 f6 f35) ?v0) f35)))
(assert (forall ((?v0 S6)) (= (f19 (f20 f23 f40) ?v0) f40)))
(check-sat)
(exit)
